p cnf 7 20
-3 -1 2 0
-6 -5 0
2 -6 5 0
7 1 3 0
-3 -2 -5 4 -1 0
-2 -4 0
7 -5 1 3 0
-1 -3 0
-6 -1 2 5 4 0
3 6 -1 -7 0
4 2 -5 7 -3 0
4 6 1 7 3 -5 0
1 5 0
4 -2 -7 0
-2 -1 0
3 -7 0
2 3 -5 0
7 3 0
-4 -6 -2 1 0
4 1 0
